c nIsolatedPIs 3
c maxPI 132
p cnf 729 1792
c gate 133 -56 127 0
-56 -133 0
127 -133 0
56 -127 133 0
c gate 134 -58 -127 0
-58 -134 0
-127 -134 0
58 127 134 0
c gate 135 -126 -134 0
-126 -135 0
-134 -135 0
126 134 135 0
c gate 136 -133 135 0
-133 -136 0
135 -136 0
133 -135 136 0
c gate 137 -55 127 0
-55 -137 0
127 -137 0
55 -127 137 0
c gate 138 -57 -127 0
-57 -138 0
-127 -138 0
57 127 138 0
c gate 139 126 -138 0
126 -139 0
-138 -139 0
-126 138 139 0
c gate 140 -137 139 0
-137 -140 0
139 -140 0
137 -139 140 0
c gate 141 -136 -140 0
-136 -141 0
-140 -141 0
136 140 141 0
c gate 142 129 -141 0
129 -142 0
-141 -142 0
-129 141 142 0
c gate 143 -63 127 0
-63 -143 0
127 -143 0
63 -127 143 0
c gate 144 -65 -127 0
-65 -144 0
-127 -144 0
65 127 144 0
c gate 145 -143 -144 0
-143 -145 0
-144 -145 0
143 144 145 0
c gate 146 126 -145 0
126 -146 0
-145 -146 0
-126 145 146 0
c gate 147 -64 127 0
-64 -147 0
127 -147 0
64 -127 147 0
c gate 148 -66 -127 0
-66 -148 0
-127 -148 0
66 127 148 0
c gate 149 -147 -148 0
-147 -149 0
-148 -149 0
147 148 149 0
c gate 150 -126 -149 0
-126 -150 0
-149 -150 0
126 149 150 0
c gate 151 -129 -150 0
-129 -151 0
-150 -151 0
129 150 151 0
c gate 152 -146 151 0
-146 -152 0
151 -152 0
146 -151 152 0
c gate 153 -142 -152 0
-142 -153 0
-152 -153 0
142 152 153 0
c gate 154 -128 -153 0
-128 -154 0
-153 -154 0
128 153 154 0
c gate 155 54 -127 0
54 -155 0
-127 -155 0
-54 127 155 0
c gate 156 52 127 0
52 -156 0
127 -156 0
-52 -127 156 0
c gate 157 -126 -156 0
-126 -157 0
-156 -157 0
126 156 157 0
c gate 158 -155 157 0
-155 -158 0
157 -158 0
155 -157 158 0
c gate 159 51 127 0
51 -159 0
127 -159 0
-51 -127 159 0
c gate 160 53 -127 0
53 -160 0
-127 -160 0
-53 127 160 0
c gate 161 126 -160 0
126 -161 0
-160 -161 0
-126 160 161 0
c gate 162 -159 161 0
-159 -162 0
161 -162 0
159 -161 162 0
c gate 163 -158 -162 0
-158 -163 0
-162 -163 0
158 162 163 0
c gate 164 129 -163 0
129 -164 0
-163 -164 0
-129 163 164 0
c gate 165 61 -127 0
61 -165 0
-127 -165 0
-61 127 165 0
c gate 166 59 127 0
59 -166 0
127 -166 0
-59 -127 166 0
c gate 167 126 -166 0
126 -167 0
-166 -167 0
-126 166 167 0
c gate 168 -165 167 0
-165 -168 0
167 -168 0
165 -167 168 0
c gate 169 60 127 0
60 -169 0
127 -169 0
-60 -127 169 0
c gate 170 62 -127 0
62 -170 0
-127 -170 0
-62 127 170 0
c gate 171 -126 -170 0
-126 -171 0
-170 -171 0
126 170 171 0
c gate 172 -169 171 0
-169 -172 0
171 -172 0
169 -171 172 0
c gate 173 -168 -172 0
-168 -173 0
-172 -173 0
168 172 173 0
c gate 174 -129 -173 0
-129 -174 0
-173 -174 0
129 173 174 0
c gate 175 128 -174 0
128 -175 0
-174 -175 0
-128 174 175 0
c gate 176 -164 175 0
-164 -176 0
175 -176 0
164 -175 176 0
c gate 177 -154 -176 0
-154 -177 0
-176 -177 0
154 176 177 0
c gate 178 -131 -177 0
-131 -178 0
-177 -178 0
131 177 178 0
c gate 179 27 127 0
27 -179 0
127 -179 0
-27 -127 179 0
c gate 180 29 -127 0
29 -180 0
-127 -180 0
-29 127 180 0
c gate 181 126 -180 0
126 -181 0
-180 -181 0
-126 180 181 0
c gate 182 -179 181 0
-179 -182 0
181 -182 0
179 -181 182 0
c gate 183 28 127 0
28 -183 0
127 -183 0
-28 -127 183 0
c gate 184 30 -127 0
30 -184 0
-127 -184 0
-30 127 184 0
c gate 185 -126 -184 0
-126 -185 0
-184 -185 0
126 184 185 0
c gate 186 -183 185 0
-183 -186 0
185 -186 0
183 -185 186 0
c gate 187 -182 -186 0
-182 -187 0
-186 -187 0
182 186 187 0
c gate 188 -129 -187 0
-129 -188 0
-187 -188 0
129 187 188 0
c gate 189 19 127 0
19 -189 0
127 -189 0
-19 -127 189 0
c gate 190 21 -127 0
21 -190 0
-127 -190 0
-21 127 190 0
c gate 191 126 -190 0
126 -191 0
-190 -191 0
-126 190 191 0
c gate 192 -189 191 0
-189 -192 0
191 -192 0
189 -191 192 0
c gate 193 20 127 0
20 -193 0
127 -193 0
-20 -127 193 0
c gate 194 22 -127 0
22 -194 0
-127 -194 0
-22 127 194 0
c gate 195 -126 -194 0
-126 -195 0
-194 -195 0
126 194 195 0
c gate 196 -193 195 0
-193 -196 0
195 -196 0
193 -195 196 0
c gate 197 -192 -196 0
-192 -197 0
-196 -197 0
192 196 197 0
c gate 198 129 -197 0
129 -198 0
-197 -198 0
-129 197 198 0
c gate 199 -188 -198 0
-188 -199 0
-198 -199 0
188 198 199 0
c gate 200 128 -199 0
128 -200 0
-199 -200 0
-128 199 200 0
c gate 201 24 127 0
24 -201 0
127 -201 0
-24 -127 201 0
c gate 202 26 -127 0
26 -202 0
-127 -202 0
-26 127 202 0
c gate 203 -126 -202 0
-126 -203 0
-202 -203 0
126 202 203 0
c gate 204 -201 203 0
-201 -204 0
203 -204 0
201 -203 204 0
c gate 205 23 127 0
23 -205 0
127 -205 0
-23 -127 205 0
c gate 206 25 -127 0
25 -206 0
-127 -206 0
-25 127 206 0
c gate 207 126 -206 0
126 -207 0
-206 -207 0
-126 206 207 0
c gate 208 -205 207 0
-205 -208 0
207 -208 0
205 -207 208 0
c gate 209 -204 -208 0
-204 -209 0
-208 -209 0
204 208 209 0
c gate 210 129 -209 0
129 -210 0
-209 -210 0
-129 209 210 0
c gate 211 32 127 0
32 -211 0
127 -211 0
-32 -127 211 0
c gate 212 34 -127 0
34 -212 0
-127 -212 0
-34 127 212 0
c gate 213 -126 -212 0
-126 -213 0
-212 -213 0
126 212 213 0
c gate 214 -211 213 0
-211 -214 0
213 -214 0
211 -213 214 0
c gate 215 31 127 0
31 -215 0
127 -215 0
-31 -127 215 0
c gate 216 33 -127 0
33 -216 0
-127 -216 0
-33 127 216 0
c gate 217 126 -216 0
126 -217 0
-216 -217 0
-126 216 217 0
c gate 218 -215 217 0
-215 -218 0
217 -218 0
215 -217 218 0
c gate 219 -214 -218 0
-214 -219 0
-218 -219 0
214 218 219 0
c gate 220 -129 -219 0
-129 -220 0
-219 -220 0
129 219 220 0
c gate 221 -210 -220 0
-210 -221 0
-220 -221 0
210 220 221 0
c gate 222 -128 -221 0
-128 -222 0
-221 -222 0
128 221 222 0
c gate 223 131 -222 0
131 -223 0
-222 -223 0
-131 222 223 0
c gate 224 -200 223 0
-200 -224 0
223 -224 0
200 -223 224 0
c gate 225 -178 -224 0
-178 -225 0
-224 -225 0
178 224 225 0
c gate 226 130 -225 0
130 -226 0
-225 -226 0
-130 225 226 0
c gate 227 132 226 0
132 -227 0
226 -227 0
-132 -226 227 0
c gate 228 12 -127 0
12 -228 0
-127 -228 0
-12 127 228 0
c gate 229 10 127 0
10 -229 0
127 -229 0
-10 -127 229 0
c gate 230 -126 -229 0
-126 -230 0
-229 -230 0
126 229 230 0
c gate 231 -228 230 0
-228 -231 0
230 -231 0
228 -230 231 0
c gate 232 11 -127 0
11 -232 0
-127 -232 0
-11 127 232 0
c gate 233 9 127 0
9 -233 0
127 -233 0
-9 -127 233 0
c gate 234 126 -233 0
126 -234 0
-233 -234 0
-126 233 234 0
c gate 235 -232 234 0
-232 -235 0
234 -235 0
232 -234 235 0
c gate 236 -231 -235 0
-231 -236 0
-235 -236 0
231 235 236 0
c gate 237 129 -236 0
129 -237 0
-236 -237 0
-129 236 237 0
c gate 238 19 -127 0
19 -238 0
-127 -238 0
-19 127 238 0
c gate 239 17 127 0
17 -239 0
127 -239 0
-17 -127 239 0
c gate 240 126 -239 0
126 -240 0
-239 -240 0
-126 239 240 0
c gate 241 -238 240 0
-238 -241 0
240 -241 0
238 -240 241 0
c gate 242 20 -127 0
20 -242 0
-127 -242 0
-20 127 242 0
c gate 243 18 127 0
18 -243 0
127 -243 0
-18 -127 243 0
c gate 244 -126 -243 0
-126 -244 0
-243 -244 0
126 243 244 0
c gate 245 -242 244 0
-242 -245 0
244 -245 0
242 -244 245 0
c gate 246 -241 -245 0
-241 -246 0
-245 -246 0
241 245 246 0
c gate 247 -129 -246 0
-129 -247 0
-246 -247 0
129 246 247 0
c gate 248 128 -247 0
128 -248 0
-247 -248 0
-128 247 248 0
c gate 249 -237 248 0
-237 -249 0
248 -249 0
237 -248 249 0
c gate 250 16 -127 0
16 -250 0
-127 -250 0
-16 127 250 0
c gate 251 14 127 0
14 -251 0
127 -251 0
-14 -127 251 0
c gate 252 -126 -251 0
-126 -252 0
-251 -252 0
126 251 252 0
c gate 253 -250 252 0
-250 -253 0
252 -253 0
250 -252 253 0
c gate 254 15 -127 0
15 -254 0
-127 -254 0
-15 127 254 0
c gate 255 13 127 0
13 -255 0
127 -255 0
-13 -127 255 0
c gate 256 126 -255 0
126 -256 0
-255 -256 0
-126 255 256 0
c gate 257 -254 256 0
-254 -257 0
256 -257 0
254 -256 257 0
c gate 258 -253 -257 0
-253 -258 0
-257 -258 0
253 257 258 0
c gate 259 129 -258 0
129 -259 0
-258 -259 0
-129 258 259 0
c gate 260 23 -127 0
23 -260 0
-127 -260 0
-23 127 260 0
c gate 261 21 127 0
21 -261 0
127 -261 0
-21 -127 261 0
c gate 262 126 -261 0
126 -262 0
-261 -262 0
-126 261 262 0
c gate 263 -260 262 0
-260 -263 0
262 -263 0
260 -262 263 0
c gate 264 24 -127 0
24 -264 0
-127 -264 0
-24 127 264 0
c gate 265 22 127 0
22 -265 0
127 -265 0
-22 -127 265 0
c gate 266 -126 -265 0
-126 -266 0
-265 -266 0
126 265 266 0
c gate 267 -264 266 0
-264 -267 0
266 -267 0
264 -266 267 0
c gate 268 -263 -267 0
-263 -268 0
-267 -268 0
263 267 268 0
c gate 269 -129 -268 0
-129 -269 0
-268 -269 0
129 268 269 0
c gate 270 -128 -269 0
-128 -270 0
-269 -270 0
128 269 270 0
c gate 271 -259 270 0
-259 -271 0
270 -271 0
259 -270 271 0
c gate 272 -249 -271 0
-249 -272 0
-271 -272 0
249 271 272 0
c gate 273 131 272 0
131 -273 0
272 -273 0
-131 -272 273 0
c gate 274 -41 127 0
-41 -274 0
127 -274 0
41 -127 274 0
c gate 275 -43 -127 0
-43 -275 0
-127 -275 0
43 127 275 0
c gate 276 126 -275 0
126 -276 0
-275 -276 0
-126 275 276 0
c gate 277 -274 276 0
-274 -277 0
276 -277 0
274 -276 277 0
c gate 278 -42 127 0
-42 -278 0
127 -278 0
42 -127 278 0
c gate 279 -44 -127 0
-44 -279 0
-127 -279 0
44 127 279 0
c gate 280 -126 -279 0
-126 -280 0
-279 -280 0
126 279 280 0
c gate 281 -278 280 0
-278 -281 0
280 -281 0
278 -280 281 0
c gate 282 -277 -281 0
-277 -282 0
-281 -282 0
277 281 282 0
c gate 283 129 282 0
129 -283 0
282 -283 0
-129 -282 283 0
c gate 284 -50 127 0
-50 -284 0
127 -284 0
50 -127 284 0
c gate 285 -52 -127 0
-52 -285 0
-127 -285 0
52 127 285 0
c gate 286 -126 -285 0
-126 -286 0
-285 -286 0
126 285 286 0
c gate 287 -284 286 0
-284 -287 0
286 -287 0
284 -286 287 0
c gate 288 -49 127 0
-49 -288 0
127 -288 0
49 -127 288 0
c gate 289 -51 -127 0
-51 -289 0
-127 -289 0
51 127 289 0
c gate 290 126 -289 0
126 -290 0
-289 -290 0
-126 289 290 0
c gate 291 -288 290 0
-288 -291 0
290 -291 0
288 -290 291 0
c gate 292 -129 -291 0
-129 -292 0
-291 -292 0
129 291 292 0
c gate 293 -287 292 0
-287 -293 0
292 -293 0
287 -292 293 0
c gate 294 128 -293 0
128 -294 0
-293 -294 0
-128 293 294 0
c gate 295 -283 294 0
-283 -295 0
294 -295 0
283 -294 295 0
c gate 296 -45 127 0
-45 -296 0
127 -296 0
45 -127 296 0
c gate 297 -47 -127 0
-47 -297 0
-127 -297 0
47 127 297 0
c gate 298 126 -297 0
126 -298 0
-297 -298 0
-126 297 298 0
c gate 299 -296 298 0
-296 -299 0
298 -299 0
296 -298 299 0
c gate 300 -46 127 0
-46 -300 0
127 -300 0
46 -127 300 0
c gate 301 -48 -127 0
-48 -301 0
-127 -301 0
48 127 301 0
c gate 302 -126 -301 0
-126 -302 0
-301 -302 0
126 301 302 0
c gate 303 -300 302 0
-300 -303 0
302 -303 0
300 -302 303 0
c gate 304 -299 -303 0
-299 -304 0
-303 -304 0
299 303 304 0
c gate 305 129 304 0
129 -305 0
304 -305 0
-129 -304 305 0
c gate 306 -54 127 0
-54 -306 0
127 -306 0
54 -127 306 0
c gate 307 -56 -127 0
-56 -307 0
-127 -307 0
56 127 307 0
c gate 308 -126 -307 0
-126 -308 0
-307 -308 0
126 307 308 0
c gate 309 -306 308 0
-306 -309 0
308 -309 0
306 -308 309 0
c gate 310 -53 127 0
-53 -310 0
127 -310 0
53 -127 310 0
c gate 311 -55 -127 0
-55 -311 0
-127 -311 0
55 127 311 0
c gate 312 126 -311 0
126 -312 0
-311 -312 0
-126 311 312 0
c gate 313 -310 312 0
-310 -313 0
312 -313 0
310 -312 313 0
c gate 314 -129 -313 0
-129 -314 0
-313 -314 0
129 313 314 0
c gate 315 -309 314 0
-309 -315 0
314 -315 0
309 -314 315 0
c gate 316 -128 -315 0
-128 -316 0
-315 -316 0
128 315 316 0
c gate 317 -305 316 0
-305 -317 0
316 -317 0
305 -316 317 0
c gate 318 -131 -317 0
-131 -318 0
-317 -318 0
131 317 318 0
c gate 319 -295 318 0
-295 -319 0
318 -319 0
295 -318 319 0
c gate 320 130 -319 0
130 -320 0
-319 -320 0
-130 319 320 0
c gate 321 -273 320 0
-273 -321 0
320 -321 0
273 -320 321 0
c gate 322 132 321 0
132 -322 0
321 -322 0
-132 -321 322 0
c gate 323 129 187 0
129 -323 0
187 -323 0
-129 -187 323 0
c gate 324 -35 127 0
-35 -324 0
127 -324 0
35 -127 324 0
c gate 325 -37 -127 0
-37 -325 0
-127 -325 0
37 127 325 0
c gate 326 126 -325 0
126 -326 0
-325 -326 0
-126 325 326 0
c gate 327 -324 326 0
-324 -327 0
326 -327 0
324 -326 327 0
c gate 328 -36 127 0
-36 -328 0
127 -328 0
36 -127 328 0
c gate 329 -38 -127 0
-38 -329 0
-127 -329 0
38 127 329 0
c gate 330 -126 -329 0
-126 -330 0
-329 -330 0
126 329 330 0
c gate 331 -328 330 0
-328 -331 0
330 -331 0
328 -330 331 0
c gate 332 -327 -331 0
-327 -332 0
-331 -332 0
327 331 332 0
c gate 333 -129 -332 0
-129 -333 0
-332 -333 0
129 332 333 0
c gate 334 -128 -333 0
-128 -334 0
-333 -334 0
128 333 334 0
c gate 335 -323 334 0
-323 -335 0
334 -335 0
323 -334 335 0
c gate 336 128 -221 0
128 -336 0
-221 -336 0
-128 221 336 0
c gate 337 -131 -336 0
-131 -337 0
-336 -337 0
131 336 337 0
c gate 338 -335 337 0
-335 -338 0
337 -338 0
335 -337 338 0
c gate 339 -3 -127 0
-3 -339 0
-127 -339 0
3 127 339 0
c gate 340 -1 127 0
-1 -340 0
127 -340 0
1 -127 340 0
c gate 341 -339 -340 0
-339 -341 0
-340 -341 0
339 340 341 0
c gate 342 126 341 0
126 -342 0
341 -342 0
-126 -341 342 0
c gate 343 -4 -127 0
-4 -343 0
-127 -343 0
4 127 343 0
c gate 344 -2 127 0
-2 -344 0
127 -344 0
2 -127 344 0
c gate 345 -126 -344 0
-126 -345 0
-344 -345 0
126 344 345 0
c gate 346 -343 345 0
-343 -346 0
345 -346 0
343 -345 346 0
c gate 347 -129 -346 0
-129 -347 0
-346 -347 0
129 346 347 0
c gate 348 -342 347 0
-342 -348 0
347 -348 0
342 -347 348 0
c gate 349 -120 -127 0
-120 -349 0
-127 -349 0
120 127 349 0
c gate 350 -118 127 0
-118 -350 0
127 -350 0
118 -127 350 0
c gate 351 -349 -350 0
-349 -351 0
-350 -351 0
349 350 351 0
c gate 352 126 351 0
126 -352 0
351 -352 0
-126 -351 352 0
c gate 353 -121 -127 0
-121 -353 0
-127 -353 0
121 127 353 0
c gate 354 -119 127 0
-119 -354 0
127 -354 0
119 -127 354 0
c gate 355 -126 -354 0
-126 -355 0
-354 -355 0
126 354 355 0
c gate 356 -353 355 0
-353 -356 0
355 -356 0
353 -355 356 0
c gate 357 129 -356 0
129 -357 0
-356 -357 0
-129 356 357 0
c gate 358 -352 357 0
-352 -358 0
357 -358 0
352 -357 358 0
c gate 359 -348 -358 0
-348 -359 0
-358 -359 0
348 358 359 0
c gate 360 128 -359 0
128 -360 0
-359 -360 0
-128 359 360 0
c gate 361 6 127 0
6 -361 0
127 -361 0
-6 -127 361 0
c gate 362 8 -127 0
8 -362 0
-127 -362 0
-8 127 362 0
c gate 363 -126 -362 0
-126 -363 0
-362 -363 0
126 362 363 0
c gate 364 -361 363 0
-361 -364 0
363 -364 0
361 -363 364 0
c gate 365 5 127 0
5 -365 0
127 -365 0
-5 -127 365 0
c gate 366 7 -127 0
7 -366 0
-127 -366 0
-7 127 366 0
c gate 367 126 -366 0
126 -367 0
-366 -367 0
-126 366 367 0
c gate 368 -365 367 0
-365 -368 0
367 -368 0
365 -367 368 0
c gate 369 -364 -368 0
-364 -369 0
-368 -369 0
364 368 369 0
c gate 370 -129 -369 0
-129 -370 0
-369 -370 0
129 369 370 0
c gate 371 125 -127 0
125 -371 0
-127 -371 0
-125 127 371 0
c gate 372 123 127 0
123 -372 0
127 -372 0
-123 -127 372 0
c gate 373 -371 -372 0
-371 -373 0
-372 -373 0
371 372 373 0
c gate 374 -126 -373 0
-126 -374 0
-373 -374 0
126 373 374 0
c gate 375 -124 -127 0
-124 -375 0
-127 -375 0
124 127 375 0
c gate 376 -122 127 0
-122 -376 0
127 -376 0
122 -127 376 0
c gate 377 -375 -376 0
-375 -377 0
-376 -377 0
375 376 377 0
c gate 378 126 377 0
126 -378 0
377 -378 0
-126 -377 378 0
c gate 379 129 -378 0
129 -379 0
-378 -379 0
-129 378 379 0
c gate 380 -374 379 0
-374 -380 0
379 -380 0
374 -379 380 0
c gate 381 -370 -380 0
-370 -381 0
-380 -381 0
370 380 381 0
c gate 382 -128 -381 0
-128 -382 0
-381 -382 0
128 381 382 0
c gate 383 -360 -382 0
-360 -383 0
-382 -383 0
360 382 383 0
c gate 384 131 383 0
131 -384 0
383 -384 0
-131 -383 384 0
c gate 385 130 -384 0
130 -385 0
-384 -385 0
-130 384 385 0
c gate 386 -338 385 0
-338 -386 0
385 -386 0
338 -385 386 0
c gate 387 132 386 0
132 -387 0
386 -387 0
-132 -386 387 0
c gate 388 -38 127 0
-38 -388 0
127 -388 0
38 -127 388 0
c gate 389 -40 -127 0
-40 -389 0
-127 -389 0
40 127 389 0
c gate 390 -126 -389 0
-126 -390 0
-389 -390 0
126 389 390 0
c gate 391 -388 390 0
-388 -391 0
390 -391 0
388 -390 391 0
c gate 392 -37 127 0
-37 -392 0
127 -392 0
37 -127 392 0
c gate 393 -39 -127 0
-39 -393 0
-127 -393 0
39 127 393 0
c gate 394 126 -393 0
126 -394 0
-393 -394 0
-126 393 394 0
c gate 395 -392 394 0
-392 -395 0
394 -395 0
392 -394 395 0
c gate 396 129 -395 0
129 -396 0
-395 -396 0
-129 395 396 0
c gate 397 -391 396 0
-391 -397 0
396 -397 0
391 -396 397 0
c gate 398 -129 304 0
-129 -398 0
304 -398 0
129 -304 398 0
c gate 399 -128 -398 0
-128 -399 0
-398 -399 0
128 398 399 0
c gate 400 -397 399 0
-397 -400 0
399 -400 0
397 -399 400 0
c gate 401 -34 127 0
-34 -401 0
127 -401 0
34 -127 401 0
c gate 402 -36 -127 0
-36 -402 0
-127 -402 0
36 127 402 0
c gate 403 -126 -402 0
-126 -403 0
-402 -403 0
126 402 403 0
c gate 404 -401 403 0
-401 -404 0
403 -404 0
401 -403 404 0
c gate 405 -33 127 0
-33 -405 0
127 -405 0
33 -127 405 0
c gate 406 -35 -127 0
-35 -406 0
-127 -406 0
35 127 406 0
c gate 407 126 -406 0
126 -407 0
-406 -407 0
-126 406 407 0
c gate 408 -405 407 0
-405 -408 0
407 -408 0
405 -407 408 0
c gate 409 129 -408 0
129 -409 0
-408 -409 0
-129 408 409 0
c gate 410 -404 409 0
-404 -410 0
409 -410 0
404 -409 410 0
c gate 411 -129 282 0
-129 -411 0
282 -411 0
129 -282 411 0
c gate 412 128 -411 0
128 -412 0
-411 -412 0
-128 411 412 0
c gate 413 -410 412 0
-410 -413 0
412 -413 0
410 -412 413 0
c gate 414 -400 -413 0
-400 -414 0
-413 -414 0
400 413 414 0
c gate 415 131 -414 0
131 -415 0
-414 -415 0
-131 414 415 0
c gate 416 -67 -127 0
-67 -416 0
-127 -416 0
67 127 416 0
c gate 417 -65 127 0
-65 -417 0
127 -417 0
65 -127 417 0
c gate 418 -416 -417 0
-416 -418 0
-417 -418 0
416 417 418 0
c gate 419 126 418 0
126 -419 0
418 -419 0
-126 -418 419 0
c gate 420 -66 127 0
-66 -420 0
127 -420 0
66 -127 420 0
c gate 421 -68 -127 0
-68 -421 0
-127 -421 0
68 127 421 0
c gate 422 -126 -421 0
-126 -422 0
-421 -422 0
126 421 422 0
c gate 423 -420 422 0
-420 -423 0
422 -423 0
420 -422 423 0
c gate 424 129 -423 0
129 -424 0
-423 -424 0
-129 423 424 0
c gate 425 -419 424 0
-419 -425 0
424 -425 0
419 -424 425 0
c gate 426 -75 -127 0
-75 -426 0
-127 -426 0
75 127 426 0
c gate 427 -73 127 0
-73 -427 0
127 -427 0
73 -127 427 0
c gate 428 -426 -427 0
-426 -428 0
-427 -428 0
426 427 428 0
c gate 429 126 428 0
126 -429 0
428 -429 0
-126 -428 429 0
c gate 430 -74 127 0
-74 -430 0
127 -430 0
74 -127 430 0
c gate 431 -76 -127 0
-76 -431 0
-127 -431 0
76 127 431 0
c gate 432 -126 -431 0
-126 -432 0
-431 -432 0
126 431 432 0
c gate 433 -430 432 0
-430 -433 0
432 -433 0
430 -432 433 0
c gate 434 -129 -433 0
-129 -434 0
-433 -434 0
129 433 434 0
c gate 435 -429 434 0
-429 -435 0
434 -435 0
429 -434 435 0
c gate 436 -425 -435 0
-425 -436 0
-435 -436 0
425 435 436 0
c gate 437 128 -436 0
128 -437 0
-436 -437 0
-128 436 437 0
c gate 438 -79 -127 0
-79 -438 0
-127 -438 0
79 127 438 0
c gate 439 -77 127 0
-77 -439 0
127 -439 0
77 -127 439 0
c gate 440 -438 -439 0
-438 -440 0
-439 -440 0
438 439 440 0
c gate 441 126 440 0
126 -441 0
440 -441 0
-126 -440 441 0
c gate 442 -78 127 0
-78 -442 0
127 -442 0
78 -127 442 0
c gate 443 -80 -127 0
-80 -443 0
-127 -443 0
80 127 443 0
c gate 444 -126 -443 0
-126 -444 0
-443 -444 0
126 443 444 0
c gate 445 -442 444 0
-442 -445 0
444 -445 0
442 -444 445 0
c gate 446 -129 -445 0
-129 -446 0
-445 -446 0
129 445 446 0
c gate 447 -441 446 0
-441 -447 0
446 -447 0
441 -446 447 0
c gate 448 -71 -127 0
-71 -448 0
-127 -448 0
71 127 448 0
c gate 449 -69 127 0
-69 -449 0
127 -449 0
69 -127 449 0
c gate 450 -448 -449 0
-448 -450 0
-449 -450 0
448 449 450 0
c gate 451 126 450 0
126 -451 0
450 -451 0
-126 -450 451 0
c gate 452 -70 127 0
-70 -452 0
127 -452 0
70 -127 452 0
c gate 453 -72 -127 0
-72 -453 0
-127 -453 0
72 127 453 0
c gate 454 -126 -453 0
-126 -454 0
-453 -454 0
126 453 454 0
c gate 455 -452 454 0
-452 -455 0
454 -455 0
452 -454 455 0
c gate 456 129 -455 0
129 -456 0
-455 -456 0
-129 455 456 0
c gate 457 -451 456 0
-451 -457 0
456 -457 0
451 -456 457 0
c gate 458 -447 -457 0
-447 -458 0
-457 -458 0
447 457 458 0
c gate 459 -128 -458 0
-128 -459 0
-458 -459 0
128 458 459 0
c gate 460 -131 -459 0
-131 -460 0
-459 -460 0
131 459 460 0
c gate 461 -437 460 0
-437 -461 0
460 -461 0
437 -460 461 0
c gate 462 -415 -461 0
-415 -462 0
-461 -462 0
415 461 462 0
c gate 463 130 -462 0
130 -463 0
-462 -463 0
-130 462 463 0
c gate 464 -132 463 0
-132 -464 0
463 -464 0
132 -463 464 0
c gate 465 -88 -127 0
-88 -465 0
-127 -465 0
88 127 465 0
c gate 466 -86 127 0
-86 -466 0
127 -466 0
86 -127 466 0
c gate 467 -465 -466 0
-465 -467 0
-466 -467 0
465 466 467 0
c gate 468 126 467 0
126 -468 0
467 -468 0
-126 -467 468 0
c gate 469 -89 -127 0
-89 -469 0
-127 -469 0
89 127 469 0
c gate 470 -87 127 0
-87 -470 0
127 -470 0
87 -127 470 0
c gate 471 -126 -470 0
-126 -471 0
-470 -471 0
126 470 471 0
c gate 472 -469 471 0
-469 -472 0
471 -472 0
469 -471 472 0
c gate 473 129 -472 0
129 -473 0
-472 -473 0
-129 472 473 0
c gate 474 -468 473 0
-468 -474 0
473 -474 0
468 -473 474 0
c gate 475 -96 -127 0
-96 -475 0
-127 -475 0
96 127 475 0
c gate 476 -94 127 0
-94 -476 0
127 -476 0
94 -127 476 0
c gate 477 -475 -476 0
-475 -477 0
-476 -477 0
475 476 477 0
c gate 478 126 477 0
126 -478 0
477 -478 0
-126 -477 478 0
c gate 479 -95 127 0
-95 -479 0
127 -479 0
95 -127 479 0
c gate 480 -97 -127 0
-97 -480 0
-127 -480 0
97 127 480 0
c gate 481 -479 -480 0
-479 -481 0
-480 -481 0
479 480 481 0
c gate 482 -126 481 0
-126 -482 0
481 -482 0
126 -481 482 0
c gate 483 -129 -482 0
-129 -483 0
-482 -483 0
129 482 483 0
c gate 484 -478 483 0
-478 -484 0
483 -484 0
478 -483 484 0
c gate 485 -474 -484 0
-474 -485 0
-484 -485 0
474 484 485 0
c gate 486 128 -485 0
128 -486 0
-485 -486 0
-128 485 486 0
c gate 487 -98 127 0
-98 -487 0
127 -487 0
98 -127 487 0
c gate 488 -100 -127 0
-100 -488 0
-127 -488 0
100 127 488 0
c gate 489 126 -488 0
126 -489 0
-488 -489 0
-126 488 489 0
c gate 490 -487 489 0
-487 -490 0
489 -490 0
487 -489 490 0
c gate 491 -99 127 0
-99 -491 0
127 -491 0
99 -127 491 0
c gate 492 -101 -127 0
-101 -492 0
-127 -492 0
101 127 492 0
c gate 493 -491 -492 0
-491 -493 0
-492 -493 0
491 492 493 0
c gate 494 -126 493 0
-126 -494 0
493 -494 0
126 -493 494 0
c gate 495 -129 -494 0
-129 -495 0
-494 -495 0
129 494 495 0
c gate 496 -490 495 0
-490 -496 0
495 -496 0
490 -495 496 0
c gate 497 -92 -127 0
-92 -497 0
-127 -497 0
92 127 497 0
c gate 498 -90 127 0
-90 -498 0
127 -498 0
90 -127 498 0
c gate 499 -497 -498 0
-497 -499 0
-498 -499 0
497 498 499 0
c gate 500 126 499 0
126 -500 0
499 -500 0
-126 -499 500 0
c gate 501 -93 -127 0
-93 -501 0
-127 -501 0
93 127 501 0
c gate 502 -91 127 0
-91 -502 0
127 -502 0
91 -127 502 0
c gate 503 -126 -502 0
-126 -503 0
-502 -503 0
126 502 503 0
c gate 504 -501 503 0
-501 -504 0
503 -504 0
501 -503 504 0
c gate 505 129 -504 0
129 -505 0
-504 -505 0
-129 504 505 0
c gate 506 -500 505 0
-500 -506 0
505 -506 0
500 -505 506 0
c gate 507 -496 -506 0
-496 -507 0
-506 -507 0
496 506 507 0
c gate 508 -128 -507 0
-128 -508 0
-507 -508 0
128 507 508 0
c gate 509 131 -508 0
131 -509 0
-508 -509 0
-131 508 509 0
c gate 510 -486 509 0
-486 -510 0
509 -510 0
486 -509 510 0
c gate 511 -131 383 0
-131 -511 0
383 -511 0
131 -383 511 0
c gate 512 130 -511 0
130 -512 0
-511 -512 0
-130 511 512 0
c gate 513 -510 512 0
-510 -513 0
512 -513 0
510 -512 513 0
c gate 514 132 513 0
132 -514 0
513 -514 0
-132 -513 514 0
c gate 515 -87 -127 0
-87 -515 0
-127 -515 0
87 127 515 0
c gate 516 -85 127 0
-85 -516 0
127 -516 0
85 -127 516 0
c gate 517 126 -516 0
126 -517 0
-516 -517 0
-126 516 517 0
c gate 518 -515 517 0
-515 -518 0
517 -518 0
515 -517 518 0
c gate 519 -126 467 0
-126 -519 0
467 -519 0
126 -467 519 0
c gate 520 129 -519 0
129 -520 0
-519 -520 0
-129 519 520 0
c gate 521 -518 520 0
-518 -521 0
520 -521 0
518 -520 521 0
c gate 522 -95 -127 0
-95 -522 0
-127 -522 0
95 127 522 0
c gate 523 -93 127 0
-93 -523 0
127 -523 0
93 -127 523 0
c gate 524 126 -523 0
126 -524 0
-523 -524 0
-126 523 524 0
c gate 525 -522 524 0
-522 -525 0
524 -525 0
522 -524 525 0
c gate 526 -126 477 0
-126 -526 0
477 -526 0
126 -477 526 0
c gate 527 -129 -526 0
-129 -527 0
-526 -527 0
129 526 527 0
c gate 528 -525 527 0
-525 -528 0
527 -528 0
525 -527 528 0
c gate 529 -128 -528 0
-128 -529 0
-528 -529 0
128 528 529 0
c gate 530 -521 529 0
-521 -530 0
529 -530 0
521 -529 530 0
c gate 531 -91 -127 0
-91 -531 0
-127 -531 0
91 127 531 0
c gate 532 -89 127 0
-89 -532 0
127 -532 0
89 -127 532 0
c gate 533 126 -532 0
126 -533 0
-532 -533 0
-126 532 533 0
c gate 534 -531 533 0
-531 -534 0
533 -534 0
531 -533 534 0
c gate 535 -126 499 0
-126 -535 0
499 -535 0
126 -499 535 0
c gate 536 -129 -535 0
-129 -536 0
-535 -536 0
129 535 536 0
c gate 537 -534 536 0
-534 -537 0
536 -537 0
534 -536 537 0
c gate 538 -82 127 0
-82 -538 0
127 -538 0
82 -127 538 0
c gate 539 -84 -127 0
-84 -539 0
-127 -539 0
84 127 539 0
c gate 540 -126 -539 0
-126 -540 0
-539 -540 0
126 539 540 0
c gate 541 -538 540 0
-538 -541 0
540 -541 0
538 -540 541 0
c gate 542 -81 127 0
-81 -542 0
127 -542 0
81 -127 542 0
c gate 543 -83 -127 0
-83 -543 0
-127 -543 0
83 127 543 0
c gate 544 126 -543 0
126 -544 0
-543 -544 0
-126 543 544 0
c gate 545 -542 544 0
-542 -545 0
544 -545 0
542 -544 545 0
c gate 546 129 -545 0
129 -546 0
-545 -546 0
-129 545 546 0
c gate 547 -541 546 0
-541 -547 0
546 -547 0
541 -546 547 0
c gate 548 128 -547 0
128 -548 0
-547 -548 0
-128 547 548 0
c gate 549 -537 548 0
-537 -549 0
548 -549 0
537 -548 549 0
c gate 550 -530 -549 0
-530 -550 0
-549 -550 0
530 549 550 0
c gate 551 131 -550 0
131 -551 0
-550 -551 0
-131 550 551 0
c gate 552 -114 127 0
-114 -552 0
127 -552 0
114 -127 552 0
c gate 553 -116 -127 0
-116 -553 0
-127 -553 0
116 127 553 0
c gate 554 -126 -553 0
-126 -554 0
-553 -554 0
126 553 554 0
c gate 555 -552 554 0
-552 -555 0
554 -555 0
552 -554 555 0
c gate 556 115 -127 0
115 -556 0
-127 -556 0
-115 127 556 0
c gate 557 113 127 0
113 -557 0
127 -557 0
-113 -127 557 0
c gate 558 -556 -557 0
-556 -558 0
-557 -558 0
556 557 558 0
c gate 559 126 -558 0
126 -559 0
-558 -559 0
-126 558 559 0
c gate 560 129 -559 0
129 -560 0
-559 -560 0
-129 559 560 0
c gate 561 -555 560 0
-555 -561 0
560 -561 0
555 -560 561 0
c gate 562 -123 -127 0
-123 -562 0
-127 -562 0
123 127 562 0
c gate 563 -121 127 0
-121 -563 0
127 -563 0
121 -127 563 0
c gate 564 126 -563 0
126 -564 0
-563 -564 0
-126 563 564 0
c gate 565 -562 564 0
-562 -565 0
564 -565 0
562 -564 565 0
c gate 566 -126 377 0
-126 -566 0
377 -566 0
126 -377 566 0
c gate 567 -129 -566 0
-129 -567 0
-566 -567 0
129 566 567 0
c gate 568 -565 567 0
-565 -568 0
567 -568 0
565 -567 568 0
c gate 569 -561 -568 0
-561 -569 0
-568 -569 0
561 568 569 0
c gate 570 128 -569 0
128 -570 0
-569 -570 0
-128 569 570 0
c gate 571 119 -127 0
119 -571 0
-127 -571 0
-119 127 571 0
c gate 572 117 127 0
117 -572 0
127 -572 0
-117 -127 572 0
c gate 573 -571 -572 0
-571 -573 0
-572 -573 0
571 572 573 0
c gate 574 126 -573 0
126 -574 0
-573 -574 0
-126 573 574 0
c gate 575 -126 351 0
-126 -575 0
351 -575 0
126 -351 575 0
c gate 576 129 -575 0
129 -576 0
-575 -576 0
-129 575 576 0
c gate 577 -574 576 0
-574 -577 0
576 -577 0
574 -576 577 0
c gate 578 -2 -127 0
-2 -578 0
-127 -578 0
2 127 578 0
c gate 579 -125 127 0
-125 -579 0
127 -579 0
125 -127 579 0
c gate 580 126 -579 0
126 -580 0
-579 -580 0
-126 579 580 0
c gate 581 -578 580 0
-578 -581 0
580 -581 0
578 -580 581 0
c gate 582 -126 341 0
-126 -582 0
341 -582 0
126 -341 582 0
c gate 583 -129 -582 0
-129 -583 0
-582 -583 0
129 582 583 0
c gate 584 -581 583 0
-581 -584 0
583 -584 0
581 -583 584 0
c gate 585 -577 -584 0
-577 -585 0
-584 -585 0
577 584 585 0
c gate 586 -128 -585 0
-128 -586 0
-585 -586 0
128 585 586 0
c gate 587 -131 -586 0
-131 -587 0
-586 -587 0
131 586 587 0
c gate 588 -570 587 0
-570 -588 0
587 -588 0
570 -587 588 0
c gate 589 130 -588 0
130 -589 0
-588 -589 0
-130 588 589 0
c gate 590 -551 589 0
-551 -590 0
589 -590 0
551 -589 590 0
c gate 591 132 590 0
132 -591 0
590 -591 0
-132 -590 591 0
c gate 592 -132 321 0
-132 -592 0
321 -592 0
132 -321 592 0
c gate 593 132 463 0
132 -593 0
463 -593 0
-132 -463 593 0
c gate 594 -227 -322 0
-227 -594 0
-322 -594 0
227 322 594 0
c gate 595 -593 594 0
-593 -595 0
594 -595 0
593 -594 595 0
c gate 596 105 127 0
105 -596 0
127 -596 0
-105 -127 596 0
c gate 597 107 -127 0
107 -597 0
-127 -597 0
-107 127 597 0
c gate 598 -126 -597 0
-126 -598 0
-597 -598 0
126 597 598 0
c gate 599 -596 598 0
-596 -599 0
598 -599 0
596 -598 599 0
c gate 600 -106 -127 0
-106 -600 0
-127 -600 0
106 127 600 0
c gate 601 -104 127 0
-104 -601 0
127 -601 0
104 -127 601 0
c gate 602 -600 -601 0
-600 -602 0
-601 -602 0
600 601 602 0
c gate 603 126 -602 0
126 -603 0
-602 -603 0
-126 602 603 0
c gate 604 129 -603 0
129 -604 0
-603 -604 0
-129 603 604 0
c gate 605 -599 604 0
-599 -605 0
604 -605 0
599 -604 605 0
c gate 606 114 -127 0
114 -606 0
-127 -606 0
-114 127 606 0
c gate 607 112 127 0
112 -607 0
127 -607 0
-112 -127 607 0
c gate 608 126 -607 0
126 -608 0
-607 -608 0
-126 607 608 0
c gate 609 -606 608 0
-606 -609 0
608 -609 0
606 -608 609 0
c gate 610 -126 558 0
-126 -610 0
558 -610 0
126 -558 610 0
c gate 611 -129 -610 0
-129 -611 0
-610 -611 0
129 610 611 0
c gate 612 -609 611 0
-609 -612 0
611 -612 0
609 -611 612 0
c gate 613 -605 -612 0
-605 -613 0
-612 -613 0
605 612 613 0
c gate 614 128 -613 0
128 -614 0
-613 -614 0
-128 613 614 0
c gate 615 109 127 0
109 -615 0
127 -615 0
-109 -127 615 0
c gate 616 111 -127 0
111 -616 0
-127 -616 0
-111 127 616 0
c gate 617 -126 -616 0
-126 -617 0
-616 -617 0
126 616 617 0
c gate 618 -615 617 0
-615 -618 0
617 -618 0
615 -617 618 0
c gate 619 -110 -127 0
-110 -619 0
-127 -619 0
110 127 619 0
c gate 620 -108 127 0
-108 -620 0
127 -620 0
108 -127 620 0
c gate 621 -619 -620 0
-619 -621 0
-620 -621 0
619 620 621 0
c gate 622 126 -621 0
126 -622 0
-621 -622 0
-126 621 622 0
c gate 623 129 -622 0
129 -623 0
-622 -623 0
-129 622 623 0
c gate 624 -618 623 0
-618 -624 0
623 -624 0
618 -623 624 0
c gate 625 118 -127 0
118 -625 0
-127 -625 0
-118 127 625 0
c gate 626 116 127 0
116 -626 0
127 -626 0
-116 -127 626 0
c gate 627 126 -626 0
126 -627 0
-626 -627 0
-126 626 627 0
c gate 628 -625 627 0
-625 -628 0
627 -628 0
625 -627 628 0
c gate 629 -126 573 0
-126 -629 0
573 -629 0
126 -573 629 0
c gate 630 -129 -629 0
-129 -630 0
-629 -630 0
129 629 630 0
c gate 631 -628 630 0
-628 -631 0
630 -631 0
628 -630 631 0
c gate 632 -624 -631 0
-624 -632 0
-631 -632 0
624 631 632 0
c gate 633 -128 -632 0
-128 -633 0
-632 -633 0
128 632 633 0
c gate 634 131 -633 0
131 -634 0
-633 -634 0
-131 633 634 0
c gate 635 -614 634 0
-614 -635 0
634 -635 0
614 -634 635 0
c gate 636 -131 272 0
-131 -636 0
272 -636 0
131 -272 636 0
c gate 637 130 -636 0
130 -637 0
-636 -637 0
-130 636 637 0
c gate 638 -635 637 0
-635 -638 0
637 -638 0
635 -637 638 0
c gate 639 -132 638 0
-132 -639 0
638 -639 0
132 -638 639 0
c gate 640 595 -639 0
595 -640 0
-639 -640 0
-595 639 640 0
c gate 641 -103 127 0
-103 -641 0
127 -641 0
103 -127 641 0
c gate 642 -105 -127 0
-105 -642 0
-127 -642 0
105 127 642 0
c gate 643 126 -642 0
126 -643 0
-642 -643 0
-126 642 643 0
c gate 644 -641 643 0
-641 -644 0
643 -644 0
641 -643 644 0
c gate 645 -126 602 0
-126 -645 0
602 -645 0
126 -602 645 0
c gate 646 -129 -645 0
-129 -646 0
-645 -646 0
129 645 646 0
c gate 647 -644 646 0
-644 -647 0
646 -647 0
644 -646 647 0
c gate 648 126 481 0
126 -648 0
481 -648 0
-126 -481 648 0
c gate 649 -98 -127 0
-98 -649 0
-127 -649 0
98 127 649 0
c gate 650 -96 127 0
-96 -650 0
127 -650 0
96 -127 650 0
c gate 651 -126 -650 0
-126 -651 0
-650 -651 0
126 650 651 0
c gate 652 -649 651 0
-649 -652 0
651 -652 0
649 -651 652 0
c gate 653 129 -652 0
129 -653 0
-652 -653 0
-129 652 653 0
c gate 654 -648 653 0
-648 -654 0
653 -654 0
648 -653 654 0
c gate 655 -647 -654 0
-647 -655 0
-654 -655 0
647 654 655 0
c gate 656 128 -655 0
128 -656 0
-655 -656 0
-128 655 656 0
c gate 657 126 493 0
126 -657 0
493 -657 0
-126 -493 657 0
c gate 658 -102 -127 0
-102 -658 0
-127 -658 0
102 127 658 0
c gate 659 -100 127 0
-100 -659 0
127 -659 0
100 -127 659 0
c gate 660 -126 -659 0
-126 -660 0
-659 -660 0
126 659 660 0
c gate 661 -658 660 0
-658 -661 0
660 -661 0
658 -660 661 0
c gate 662 129 -661 0
129 -662 0
-661 -662 0
-129 661 662 0
c gate 663 -657 662 0
-657 -663 0
662 -663 0
657 -662 663 0
c gate 664 -107 127 0
-107 -664 0
127 -664 0
107 -127 664 0
c gate 665 -109 -127 0
-109 -665 0
-127 -665 0
109 127 665 0
c gate 666 126 -665 0
126 -666 0
-665 -666 0
-126 665 666 0
c gate 667 -664 666 0
-664 -667 0
666 -667 0
664 -666 667 0
c gate 668 -126 621 0
-126 -668 0
621 -668 0
126 -621 668 0
c gate 669 -129 -668 0
-129 -669 0
-668 -669 0
129 668 669 0
c gate 670 -667 669 0
-667 -670 0
669 -670 0
667 -669 670 0
c gate 671 -663 -670 0
-663 -671 0
-670 -671 0
663 670 671 0
c gate 672 -128 -671 0
-128 -672 0
-671 -672 0
128 671 672 0
c gate 673 -131 -672 0
-131 -673 0
-672 -673 0
131 672 673 0
c gate 674 -656 673 0
-656 -674 0
673 -674 0
656 -673 674 0
c gate 675 -74 -127 0
-74 -675 0
-127 -675 0
74 127 675 0
c gate 676 -72 127 0
-72 -676 0
127 -676 0
72 -127 676 0
c gate 677 126 -676 0
126 -677 0
-676 -677 0
-126 676 677 0
c gate 678 -675 677 0
-675 -678 0
677 -678 0
675 -677 678 0
c gate 679 -126 428 0
-126 -679 0
428 -679 0
126 -428 679 0
c gate 680 -129 -679 0
-129 -680 0
-679 -680 0
129 679 680 0
c gate 681 -678 680 0
-678 -681 0
680 -681 0
678 -680 681 0
c gate 682 126 149 0
126 -682 0
149 -682 0
-126 -149 682 0
c gate 683 -126 418 0
-126 -683 0
418 -683 0
126 -418 683 0
c gate 684 129 -683 0
129 -684 0
-683 -684 0
-129 683 684 0
c gate 685 -682 684 0
-682 -685 0
684 -685 0
682 -684 685 0
c gate 686 -681 -685 0
-681 -686 0
-685 -686 0
681 685 686 0
c gate 687 128 -686 0
128 -687 0
-686 -687 0
-128 686 687 0
c gate 688 -70 -127 0
-70 -688 0
-127 -688 0
70 127 688 0
c gate 689 -68 127 0
-68 -689 0
127 -689 0
68 -127 689 0
c gate 690 126 -689 0
126 -690 0
-689 -690 0
-126 689 690 0
c gate 691 -688 690 0
-688 -691 0
690 -691 0
688 -690 691 0
c gate 692 -126 450 0
-126 -692 0
450 -692 0
126 -450 692 0
c gate 693 129 -692 0
129 -693 0
-692 -693 0
-129 692 693 0
c gate 694 -691 693 0
-691 -694 0
693 -694 0
691 -693 694 0
c gate 695 -78 -127 0
-78 -695 0
-127 -695 0
78 127 695 0
c gate 696 -76 127 0
-76 -696 0
127 -696 0
76 -127 696 0
c gate 697 126 -696 0
126 -697 0
-696 -697 0
-126 696 697 0
c gate 698 -695 697 0
-695 -698 0
697 -698 0
695 -697 698 0
c gate 699 -126 440 0
-126 -699 0
440 -699 0
126 -440 699 0
c gate 700 -129 -699 0
-129 -700 0
-699 -700 0
129 699 700 0
c gate 701 -698 700 0
-698 -701 0
700 -701 0
698 -700 701 0
c gate 702 -694 -701 0
-694 -702 0
-701 -702 0
694 701 702 0
c gate 703 -128 -702 0
-128 -703 0
-702 -703 0
128 702 703 0
c gate 704 131 -703 0
131 -704 0
-703 -704 0
-131 703 704 0
c gate 705 -687 704 0
-687 -705 0
704 -705 0
687 -704 705 0
c gate 706 130 -705 0
130 -706 0
-705 -706 0
-130 705 706 0
c gate 707 -674 706 0
-674 -707 0
706 -707 0
674 -706 707 0
c gate 708 132 707 0
132 -708 0
707 -708 0
-132 -707 708 0
c gate 709 -132 386 0
-132 -709 0
386 -709 0
132 -386 709 0
c gate 710 -708 -709 0
-708 -710 0
-709 -710 0
708 709 710 0
c gate 711 -640 710 0
-640 -711 0
710 -711 0
640 -710 711 0
c gate 712 -592 -711 0
-592 -712 0
-711 -712 0
592 711 712 0
c gate 713 -591 -712 0
-591 -713 0
-712 -713 0
591 712 713 0
c gate 714 -132 226 0
-132 -714 0
226 -714 0
132 -226 714 0
c gate 715 -713 -714 0
-713 -715 0
-714 -715 0
713 714 715 0
c gate 716 -514 -715 0
-514 -716 0
-715 -716 0
514 715 716 0
c gate 717 -464 -716 0
-464 -717 0
-716 -717 0
464 716 717 0
c gate 718 132 638 0
132 -718 0
638 -718 0
-132 -638 718 0
c gate 719 717 -718 0
717 -719 0
-718 -719 0
-717 718 719 0
c gate 720 -387 -719 0
-387 -720 0
-719 -720 0
387 719 720 0
c gate 721 322 -720 0
322 -721 0
-720 -721 0
-322 720 721 0
c gate 722 -132 707 0
-132 -722 0
707 -722 0
132 -707 722 0
c gate 723 -132 590 0
-132 -723 0
590 -723 0
132 -590 723 0
c gate 724 -722 -723 0
-722 -724 0
-723 -724 0
722 723 724 0
c gate 725 720 -724 0
720 -725 0
-724 -725 0
-720 724 725 0
c gate 726 -721 -725 0
-721 -726 0
-725 -726 0
721 725 726 0
c gate 727 227 -726 0
227 -727 0
-726 -727 0
-227 726 727 0
c gate 728 -227 726 0
-227 -728 0
726 -728 0
227 -726 728 0
c gate 729 -727 -728 0
-727 -729 0
-728 -729 0
727 728 729 0
c PO
729 0
